c Random Network
p max    10      20
n         1  s
n        10  t
a       3       5       9
a       3       8      45
a       9       7      49
a       1       7       2
a       9       3      45
a       1       4       1
a      10       7      14
a       4       1      24
a       8       4      13
a      10       1      29
a       1       6      18
a      10       3      32
a       1       9      43
a       2       1      20
a       1       3      47
a       9       1       6
a       9       6      30
a       5       4      29
a       3      10      38
a       6       3      37
